(set-logic LIA)

(declare-var l1!3 Int)
(declare-var arg!55 Int)
(declare-var r!119 Int)
(declare-var arg!60 Int)
(declare-var ifres!39 Int)
(declare-var px!9 Int)
(declare-var ifres!50 Int)
(declare-var ifres!44 Int)
(declare-var res!18 Int)
(declare-var r!124 Int)
(declare-var ifres!46 Int)
(declare-var arg!64 Int)
(declare-var arg!54 Int)
(declare-var r!123 Int)
(declare-var r!130 Int)
(declare-var r!137 Int)
(declare-var r!133 Int)
(declare-var arg!56 Int)
(declare-var l2!3 Int)
(declare-var r!132 Int)
(declare-var ifres!41 Int)
(declare-var arg!61 Int)
(declare-var ifres!52 Int)
(declare-var arg!59 Int)
(declare-var arg!63 Int)
(declare-var arg!50 Int)
(declare-var r!129 Int)
(declare-var ifres!45 Int)
(declare-var r!127 Int)
(declare-var r!128 Int)
(declare-var arg!62 Int)
(declare-var res!27 Int)
(declare-var n!1 Int)
(declare-var ifres!42 Int)
(declare-var ifres!40 Int)
(declare-var arg!65 Int)
(declare-var r!138 Int)
(declare-var r!135 Int)
(declare-var ifres!49 Int)
(declare-var r!118 Int)
(declare-var r!126 Int)
(declare-var arg!57 Int)
(declare-var r!136 Int)
(declare-var arg!58 Int)
(declare-var r!125 Int)
(declare-var ifres!47 Int)
(declare-var n!0 Int)
(declare-var arg!52 Int)
(declare-var py!8 Int)
(declare-var m!0 Int)
(declare-var ifres!48 Int)
(declare-var ifres!43 Int)
(declare-var r!140 Int)
(declare-var py!9 Int)
(declare-var r!120 Int)
(declare-var ifres!51 Int)
(declare-var r!117 Int)
(declare-var arg!49 Int)
(declare-var r!121 Int)
(declare-var r!131 Int)
(declare-var px!8 Int)
(declare-var arg!51 Int)
(declare-var r!139 Int)
(declare-var res!28 Int)
(declare-var arg!53 Int)
(synth-fun b?!2 () Int ((Start Int ((Constant Int)))))
(synth-fun a?!2 () Int ((Start Int ((Constant Int)))))
(synth-fun c?!0 () Int ((Start Int ((Constant Int)))))
(synth-fun d?!0 () Int ((Start Int ((Constant Int)))))
(declare-fun mult!0 (Int Int) Int)
(declare-fun genL!3 (Int) Int)
(declare-fun append!3 (Int Int) Int)
(declare-fun pmult!0 (Int Int) Int)
(declare-fun f_good!3 (Int Int) Int)

(constraint (not (and (and (and (and (and (and (and (and (and (and (and (and (and (and (and (and (and (and (and (and (and (and (and (and (and (and (and (and (and (and (and (and (and (and (and (and (and (and (and (and (and (and (and (and (and (and (<= (- m!0) (- 0)) (<= (- n!1) (- 0))) (= (+ (- ifres!39) res!18) (- 0))) (or (and (= m!0 (- 0)) (= (+ ifres!39 (- 2)) (- 0))) (and (and (and (and (and (and (and (and (and (and (and (and (and (and (and (and (and (and (and (and (and (and (and (and (or (<= (+ n!1 1) (- 0)) (<= (+ (+ (* (- 4) n!1) r!117) (- 2)) (- 0))) (or (or (<= (+ n!1 1) (- 0)) (<= (+ r!119 1) (- 0))) (<= (+ (+ r!120 (* (- 5) n!1)) (- 3)) (- 0)))) (or (or (<= (+ arg!49 1) (- 0)) (<= (+ n!1 1) (- 0))) (and (<= (- (+ (+ (+ r!118 (* (- (b?!2)) n!1)) (* (- (a?!2)) r!133)) (* (- (c?!0)) arg!49)) (d?!0)) (- 0)) (= r!133 (mult!0 n!1 arg!49))))) (= (+ (- ifres!49) r!117) (- 0))) (or (and (= n!1 (- 0)) (= (+ ifres!49 (- 2)) (- 0))) (and (and (and (and (or (<= (+ arg!56 1) (- 0)) (<= (+ (+ r!130 (* (- 4) arg!56)) (- 2)) (- 0))) (or (<= (+ n!1 1) (- 0)) (<= (+ (- n!1) 1) (- 0)))) (= (+ (- ifres!49 r!130) (- 4)) (- 0))) (= (+ (+ (- n!1) arg!56) 1) (- 0))) (= r!130 (genL!3 arg!56))))) (= (- r!120 ifres!47) (- 0))) (or (and (= n!1 (- 0)) (= (+ ifres!47 (- 3)) (- 0))) (and (and (and (and (and (or (or (<= (+ arg!53 1) (- 0)) (<= (+ arg!54 1) (- 0))) (<= (+ (+ r!128 (* (- 5) arg!53)) (- 3)) (- 0))) (or (<= (+ n!1 1) (- 0)) (<= (+ (- n!1) 1) (- 0)))) (= (+ (- ifres!47 r!128) (- 5)) (- 0))) (= (+ (+ (- n!1) arg!53) 1) (- 0))) (= (+ (+ (- r!119) arg!54) (- 1)) (- 0))) (= r!128 (append!3 arg!53 arg!54))))) (<= (- r!126) (- 0))) (or (or (= px!9 (- 0)) (= py!9 (- 0))) (and (and (and (and (<= (- r!131) (- 0)) (or (or (= px!9 (- 0)) (= arg!57 (- 0))) (and (and (= (- (- r!131 px!9) r!140) (- 0)) (= (+ (- arg!65 arg!57) 1) (- 0))) (= r!140 (pmult!0 px!9 arg!65))))) (= (+ (- (- r!131) px!9) r!126) (- 0))) (= (+ (- arg!57 py!9) 1) (- 0))) (= r!131 (pmult!0 px!9 arg!57))))) (= (- r!119 ifres!43) (- 0))) (= (- r!125 r!126) (- 0))) (= r!126 (pmult!0 px!9 py!9))) (= (- py!9 ifres!44) (- 0))) (= (- px!9 ifres!45) (- 0))) (or (and (<= (+ n!1 1) (- 0)) (= (+ n!1 ifres!45) (- 0))) (and (<= (- n!1) (- 0)) (= (+ (- n!1) ifres!45) (- 0))))) (or (and (<= (+ arg!50 1) (- 0)) (= (+ arg!50 ifres!44) (- 0))) (and (<= (- arg!50) (- 0)) (= (+ (- arg!50) ifres!44) (- 0))))) (or (and (or (and (<= (- n!1) (- 0)) (<= (- arg!50) (- 0))) (and (<= (+ n!1 1) (- 0)) (<= (+ arg!50 1) (- 0)))) (= (+ (- r!125) ifres!43) (- 0))) (and (and (or (<= (+ n!1 1) (- 0)) (<= (+ arg!50 1) (- 0))) (or (<= (- n!1) (- 0)) (<= (- arg!50) (- 0)))) (= (+ r!125 ifres!43) (- 0))))) (or (<= (+ m!0 1) (- 0)) (<= (+ (- m!0) 1) (- 0)))) (= (+ (- (+ (- (- r!118) r!120) ifres!39) r!117) (- 6)) (- 0))) (= r!118 (f_good!3 arg!49 n!1))) (= (+ (+ (- m!0) arg!49) 1) (- 0))) (= (+ (- arg!50 m!0) 1) (- 0))) (= r!119 (mult!0 n!1 arg!50))) (= r!117 (genL!3 n!1))) (= r!120 (append!3 n!1 r!119))))) (< (+ (- (+ (+ (* (c?!0) m!0) (* (b?!2) n!1)) (* (a?!2) r!121)) res!18) (d?!0)) (- 0))) (= (+ (- ifres!50) r!124) (- 0))) (or (and (or (= px!8 (- 0)) (= py!8 (- 0))) (= ifres!50 (- 0))) (and (and (and (and (and (and (<= (- r!135) (- 0)) (or (or (= arg!59 (- 0)) (= py!8 (- 0))) (and (and (= (+ (- (- arg!59) r!138) r!135) (- 0)) (= (+ (+ (- py!8) arg!63) 1) (- 0))) (= r!138 (pmult!0 arg!59 arg!63))))) (or (<= (+ px!8 1) (- 0)) (<= (+ (- px!8) 1) (- 0)))) (or (<= (+ py!8 1) (- 0)) (<= (+ (- py!8) 1) (- 0)))) (= (- (+ (- py!8) ifres!50) r!135) (- 0))) (= (+ (- arg!59 px!8) 1) (- 0))) (= r!135 (pmult!0 arg!59 py!8))))) (<= (- r!124) (- 0))) (or (or (= px!8 (- 0)) (= py!8 (- 0))) (and (and (and (and (<= (- r!132) (- 0)) (or (or (= px!8 (- 0)) (= arg!58 (- 0))) (and (and (= (- (- r!132 px!8) r!139) (- 0)) (= (+ (+ (- arg!58) arg!64) 1) (- 0))) (= r!139 (pmult!0 px!8 arg!64))))) (= (- (+ (- r!132) r!124) px!8) (- 0))) (= (+ (+ (- py!8) arg!58) 1) (- 0))) (= r!132 (pmult!0 px!8 arg!58))))) (= (- r!121 ifres!40) (- 0))) (or (and (<= (+ n!1 1) (- 0)) (= (+ n!1 ifres!42) (- 0))) (and (<= (- n!1) (- 0)) (= (+ (- n!1) ifres!42) (- 0))))) (= (+ (- ifres!42) px!8) (- 0))) (= (- py!8 ifres!41) (- 0))) (or (and (or (and (<= (- n!1) (- 0)) (<= (- m!0) (- 0))) (and (<= (+ n!1 1) (- 0)) (<= (+ m!0 1) (- 0)))) (= (- ifres!40 r!123) (- 0))) (and (and (or (<= (+ n!1 1) (- 0)) (<= (+ m!0 1) (- 0))) (or (<= (- n!1) (- 0)) (<= (- m!0) (- 0)))) (= (+ ifres!40 r!123) (- 0))))) (= (+ (- r!124) r!123) (- 0))) (= r!124 (pmult!0 px!8 py!8))) (or (and (<= (+ m!0 1) (- 0)) (= (+ m!0 ifres!41) (- 0))) (and (<= (- m!0) (- 0)) (= (+ (- m!0) ifres!41) (- 0))))) (= r!121 (mult!0 n!1 m!0))) (or (or (<= (+ (- py!8 py!9) 1) (- 0)) (<= (+ (+ (- px!9) px!8) 1) (- 0))) (<= (+ (- r!124) r!126) (- 0)))) (or (or (<= (+ (+ (- py!8) py!9) 1) (- 0)) (<= (+ (- px!9 px!8) 1) (- 0))) (<= (- r!124 r!126) (- 0)))) (or (or (<= (+ (+ (- py!8) py!9) 1) (- 0)) (<= (+ (+ (- arg!59) px!9) 1) (- 0))) (<= (- r!135 r!126) (- 0)))) (or (or (<= (+ (+ (- py!8) arg!58) 1) (- 0)) (<= (+ (+ (- arg!59) px!8) 1) (- 0))) (<= (+ (- r!132) r!135) (- 0)))) (or (or (<= (+ (+ (- arg!58) arg!57) 1) (- 0)) (<= (+ (- px!9 px!8) 1) (- 0))) (<= (+ (- r!131) r!132) (- 0)))) (or (<= (+ (+ (- arg!57) py!9) 1) (- 0)) (<= (- r!131 r!126) (- 0)))) (or (or (<= (+ (- py!8 arg!57) 1) (- 0)) (<= (+ (+ (- px!9) px!8) 1) (- 0))) (<= (- r!131 r!124) (- 0)))) (or (or (<= (+ (- arg!58 arg!57) 1) (- 0)) (<= (+ (+ (- px!9) px!8) 1) (- 0))) (<= (+ (- r!132) r!131) (- 0)))) (or (or (<= (+ (- py!8 py!9) 1) (- 0)) (<= (+ (- arg!59 px!9) 1) (- 0))) (<= (+ (- r!135) r!126) (- 0)))) (or (or (<= (+ (- py!8 arg!57) 1) (- 0)) (<= (+ (- arg!59 px!9) 1) (- 0))) (<= (- r!131 r!135) (- 0)))) (or (<= (+ (+ (- arg!59) px!8) 1) (- 0)) (<= (+ (- r!124) r!135) (- 0)))) (or (or (<= (+ (+ (- arg!58) py!9) 1) (- 0)) (<= (+ (- px!9 px!8) 1) (- 0))) (<= (- r!132 r!126) (- 0)))) (or (<= (+ (- py!8 arg!58) 1) (- 0)) (<= (- r!132 r!124) (- 0)))) (or (<= (+ (- arg!59 px!8) 1) (- 0)) (<= (- r!124 r!135) (- 0)))) (or (or (<= (+ (+ (- py!8) arg!57) 1) (- 0)) (<= (+ (- px!9 px!8) 1) (- 0))) (<= (+ (- r!131) r!124) (- 0)))) (or (or (<= (+ (- py!8 arg!58) 1) (- 0)) (<= (+ (- arg!59 px!8) 1) (- 0))) (<= (- r!132 r!135) (- 0)))) (or (<= (+ (- arg!57 py!9) 1) (- 0)) (<= (+ (- r!131) r!126) (- 0)))) (or (<= (+ (+ (- py!8) arg!58) 1) (- 0)) (<= (+ (- r!132) r!124) (- 0)))) (or (or (<= (+ (+ (- py!8) arg!57) 1) (- 0)) (<= (+ (+ (- arg!59) px!9) 1) (- 0))) (<= (+ (- r!131) r!135) (- 0)))) (or (or (<= (+ (- arg!58 py!9) 1) (- 0)) (<= (+ (+ (- px!9) px!8) 1) (- 0))) (<= (+ (- r!132) r!126) (- 0)))) (<= (- l1!3) (- 0))) (<= (- l2!3) (- 0))) (= (- res!27 ifres!46) (- 0))) (or (and (= l1!3 (- 0)) (= (+ ifres!46 (- 3)) (- 0))) (and (and (and (and (and (and (and (or (or (<= (+ arg!51 1) (- 0)) (<= (+ arg!52 1) (- 0))) (<= (+ (+ (* (- 5) arg!51) r!127) (- 3)) (- 0))) (= (+ (- ifres!51) r!127) (- 0))) (or (and (= arg!51 (- 0)) (= (+ ifres!51 (- 3)) (- 0))) (and (and (and (and (or (<= (+ arg!51 1) (- 0)) (<= (+ (- arg!51) 1) (- 0))) (= (+ (- ifres!51 r!136) (- 5)) (- 0))) (= (+ (- arg!60 arg!51) 1) (- 0))) (= (+ (- arg!61 arg!52) (- 1)) (- 0))) (= r!136 (append!3 arg!60 arg!61))))) (or (<= (+ l1!3 1) (- 0)) (<= (+ (- l1!3) 1) (- 0)))) (= (+ (- ifres!46 r!127) (- 5)) (- 0))) (= (+ (+ (- l1!3) arg!51) 1) (- 0))) (= (+ (+ (- l2!3) arg!52) (- 1)) (- 0))) (= r!127 (append!3 arg!51 arg!52))))) (<= (+ (+ (- res!27) (* 5 l1!3)) 4) (- 0))) (<= (- n!0) (- 0))) (= (+ (- ifres!48) res!28) (- 0))) (or (and (= n!0 (- 0)) (= (+ ifres!48 (- 2)) (- 0))) (and (and (and (and (and (and (or (<= (+ arg!55 1) (- 0)) (<= (+ (+ r!129 (* (- 4) arg!55)) (- 2)) (- 0))) (= (- r!129 ifres!52) (- 0))) (or (and (= arg!55 (- 0)) (= (+ ifres!52 (- 2)) (- 0))) (and (and (and (or (<= (+ arg!55 1) (- 0)) (<= (+ (- arg!55) 1) (- 0))) (= (+ (+ (- r!137) ifres!52) (- 4)) (- 0))) (= (+ (- arg!62 arg!55) 1) (- 0))) (= r!137 (genL!3 arg!62))))) (or (<= (+ n!0 1) (- 0)) (<= (+ (- n!0) 1) (- 0)))) (= (+ (+ (- r!129) ifres!48) (- 4)) (- 0))) (= (+ (+ (- n!0) arg!55) 1) (- 0))) (= r!129 (genL!3 arg!55))))) (<= (+ (- (* 4 n!0) res!28) 3) (- 0)))))

(check-synth)

